c File: flat50_3_0.col
c
c SOURCE: Joseph Culberson (joe@cs.ualberta.ca)
c DESCRIPTION: Quasi-random coloring problem
c              generated with flatness = 0
c                             probability = 0.139
c                             known coloring = 3
c                             random seed = 1125
c              Creation Date:  Tue Jun  9 12:01:45 1998
c Maximum degree = 8 Minimum degree = 0
c p edge 50 115
c cnf created by edge2cnf
p cnf 150 545
-1 -2 0
-1 -3 0
-2 -3 0
1 2 3 0
-4 -5 0
-4 -6 0
-5 -6 0
4 5 6 0
-7 -8 0
-7 -9 0
-8 -9 0
7 8 9 0
-10 -11 0
-10 -12 0
-11 -12 0
10 11 12 0
-13 -14 0
-13 -15 0
-14 -15 0
13 14 15 0
-16 -17 0
-16 -18 0
-17 -18 0
16 17 18 0
-19 -20 0
-19 -21 0
-20 -21 0
19 20 21 0
-22 -23 0
-22 -24 0
-23 -24 0
22 23 24 0
-25 -26 0
-25 -27 0
-26 -27 0
25 26 27 0
-28 -29 0
-28 -30 0
-29 -30 0
28 29 30 0
-31 -32 0
-31 -33 0
-32 -33 0
31 32 33 0
-34 -35 0
-34 -36 0
-35 -36 0
34 35 36 0
-37 -38 0
-37 -39 0
-38 -39 0
37 38 39 0
-40 -41 0
-40 -42 0
-41 -42 0
40 41 42 0
-43 -44 0
-43 -45 0
-44 -45 0
43 44 45 0
-46 -47 0
-46 -48 0
-47 -48 0
46 47 48 0
-49 -50 0
-49 -51 0
-50 -51 0
49 50 51 0
-52 -53 0
-52 -54 0
-53 -54 0
52 53 54 0
-55 -56 0
-55 -57 0
-56 -57 0
55 56 57 0
-58 -59 0
-58 -60 0
-59 -60 0
58 59 60 0
-61 -62 0
-61 -63 0
-62 -63 0
61 62 63 0
-64 -65 0
-64 -66 0
-65 -66 0
64 65 66 0
-67 -68 0
-67 -69 0
-68 -69 0
67 68 69 0
-70 -71 0
-70 -72 0
-71 -72 0
70 71 72 0
-73 -74 0
-73 -75 0
-74 -75 0
73 74 75 0
-76 -77 0
-76 -78 0
-77 -78 0
76 77 78 0
-79 -80 0
-79 -81 0
-80 -81 0
79 80 81 0
-82 -83 0
-82 -84 0
-83 -84 0
82 83 84 0
-85 -86 0
-85 -87 0
-86 -87 0
85 86 87 0
-88 -89 0
-88 -90 0
-89 -90 0
88 89 90 0
-91 -92 0
-91 -93 0
-92 -93 0
91 92 93 0
-94 -95 0
-94 -96 0
-95 -96 0
94 95 96 0
-97 -98 0
-97 -99 0
-98 -99 0
97 98 99 0
-100 -101 0
-100 -102 0
-101 -102 0
100 101 102 0
-103 -104 0
-103 -105 0
-104 -105 0
103 104 105 0
-106 -107 0
-106 -108 0
-107 -108 0
106 107 108 0
-109 -110 0
-109 -111 0
-110 -111 0
109 110 111 0
-112 -113 0
-112 -114 0
-113 -114 0
112 113 114 0
-115 -116 0
-115 -117 0
-116 -117 0
115 116 117 0
-118 -119 0
-118 -120 0
-119 -120 0
118 119 120 0
-121 -122 0
-121 -123 0
-122 -123 0
121 122 123 0
-124 -125 0
-124 -126 0
-125 -126 0
124 125 126 0
-127 -128 0
-127 -129 0
-128 -129 0
127 128 129 0
-130 -131 0
-130 -132 0
-131 -132 0
130 131 132 0
-133 -134 0
-133 -135 0
-134 -135 0
133 134 135 0
-136 -137 0
-136 -138 0
-137 -138 0
136 137 138 0
-139 -140 0
-139 -141 0
-140 -141 0
139 140 141 0
-142 -143 0
-142 -144 0
-143 -144 0
142 143 144 0
-145 -146 0
-145 -147 0
-146 -147 0
145 146 147 0
-148 -149 0
-148 -150 0
-149 -150 0
148 149 150 0
-67 -1 0
-68 -2 0
-69 -3 0
-115 -1 0
-116 -2 0
-117 -3 0
-121 -1 0
-122 -2 0
-123 -3 0
-133 -1 0
-134 -2 0
-135 -3 0
-52 -4 0
-53 -5 0
-54 -6 0
-58 -4 0
-59 -5 0
-60 -6 0
-61 -4 0
-62 -5 0
-63 -6 0
-91 -4 0
-92 -5 0
-93 -6 0
-136 -4 0
-137 -5 0
-138 -6 0
-139 -4 0
-140 -5 0
-141 -6 0
-145 -4 0
-146 -5 0
-147 -6 0
-52 -7 0
-53 -8 0
-54 -9 0
-73 -7 0
-74 -8 0
-75 -9 0
-82 -7 0
-83 -8 0
-84 -9 0
-97 -7 0
-98 -8 0
-99 -9 0
-121 -7 0
-122 -8 0
-123 -9 0
-145 -7 0
-146 -8 0
-147 -9 0
-76 -10 0
-77 -11 0
-78 -12 0
-91 -10 0
-92 -11 0
-93 -12 0
-97 -10 0
-98 -11 0
-99 -12 0
-103 -10 0
-104 -11 0
-105 -12 0
-112 -10 0
-113 -11 0
-114 -12 0
-121 -10 0
-122 -11 0
-123 -12 0
-124 -10 0
-125 -11 0
-126 -12 0
-91 -13 0
-92 -14 0
-93 -15 0
-94 -13 0
-95 -14 0
-96 -15 0
-115 -13 0
-116 -14 0
-117 -15 0
-148 -13 0
-149 -14 0
-150 -15 0
-58 -16 0
-59 -17 0
-60 -18 0
-70 -16 0
-71 -17 0
-72 -18 0
-82 -16 0
-83 -17 0
-84 -18 0
-97 -16 0
-98 -17 0
-99 -18 0
-133 -16 0
-134 -17 0
-135 -18 0
-148 -16 0
-149 -17 0
-150 -18 0
-55 -19 0
-56 -20 0
-57 -21 0
-103 -19 0
-104 -20 0
-105 -21 0
-112 -22 0
-113 -23 0
-114 -24 0
-139 -22 0
-140 -23 0
-141 -24 0
-76 -25 0
-77 -26 0
-78 -27 0
-97 -25 0
-98 -26 0
-99 -27 0
-103 -25 0
-104 -26 0
-105 -27 0
-109 -25 0
-110 -26 0
-111 -27 0
-136 -25 0
-137 -26 0
-138 -27 0
-142 -25 0
-143 -26 0
-144 -27 0
-55 -28 0
-56 -29 0
-57 -30 0
-70 -28 0
-71 -29 0
-72 -30 0
-82 -28 0
-83 -29 0
-84 -30 0
-100 -28 0
-101 -29 0
-102 -30 0
-109 -28 0
-110 -29 0
-111 -30 0
-136 -28 0
-137 -29 0
-138 -30 0
-76 -31 0
-77 -32 0
-78 -33 0
-73 -34 0
-74 -35 0
-75 -36 0
-85 -34 0
-86 -35 0
-87 -36 0
-88 -34 0
-89 -35 0
-90 -36 0
-94 -34 0
-95 -35 0
-96 -36 0
-103 -34 0
-104 -35 0
-105 -36 0
-109 -34 0
-110 -35 0
-111 -36 0
-55 -37 0
-56 -38 0
-57 -39 0
-139 -37 0
-140 -38 0
-141 -39 0
-55 -40 0
-56 -41 0
-57 -42 0
-73 -40 0
-74 -41 0
-75 -42 0
-76 -40 0
-77 -41 0
-78 -42 0
-79 -40 0
-80 -41 0
-81 -42 0
-109 -40 0
-110 -41 0
-111 -42 0
-118 -40 0
-119 -41 0
-120 -42 0
-139 -40 0
-140 -41 0
-141 -42 0
-58 -43 0
-59 -44 0
-60 -45 0
-64 -43 0
-65 -44 0
-66 -45 0
-73 -43 0
-74 -44 0
-75 -45 0
-79 -43 0
-80 -44 0
-81 -45 0
-115 -43 0
-116 -44 0
-117 -45 0
-121 -43 0
-122 -44 0
-123 -45 0
-136 -43 0
-137 -44 0
-138 -45 0
-145 -43 0
-146 -44 0
-147 -45 0
-100 -46 0
-101 -47 0
-102 -48 0
-112 -46 0
-113 -47 0
-114 -48 0
-127 -46 0
-128 -47 0
-129 -48 0
-133 -46 0
-134 -47 0
-135 -48 0
-106 -52 0
-107 -53 0
-108 -54 0
-112 -52 0
-113 -53 0
-114 -54 0
-130 -52 0
-131 -53 0
-132 -54 0
-145 -52 0
-146 -53 0
-147 -54 0
-112 -55 0
-113 -56 0
-114 -57 0
-133 -55 0
-134 -56 0
-135 -57 0
-109 -58 0
-110 -59 0
-111 -60 0
-112 -58 0
-113 -59 0
-114 -60 0
-136 -58 0
-137 -59 0
-138 -60 0
-109 -61 0
-110 -62 0
-111 -63 0
-121 -61 0
-122 -62 0
-123 -63 0
-145 -61 0
-146 -62 0
-147 -63 0
-103 -64 0
-104 -65 0
-105 -66 0
-121 -67 0
-122 -68 0
-123 -69 0
-139 -67 0
-140 -68 0
-141 -69 0
-103 -70 0
-104 -71 0
-105 -72 0
-115 -70 0
-116 -71 0
-117 -72 0
-136 -70 0
-137 -71 0
-138 -72 0
-130 -73 0
-131 -74 0
-132 -75 0
-145 -73 0
-146 -74 0
-147 -75 0
-130 -76 0
-131 -77 0
-132 -78 0
-133 -76 0
-134 -77 0
-135 -78 0
-112 -79 0
-113 -80 0
-114 -81 0
-127 -79 0
-128 -80 0
-129 -81 0
-133 -79 0
-134 -80 0
-135 -81 0
-142 -79 0
-143 -80 0
-144 -81 0
-118 -85 0
-119 -86 0
-120 -87 0
-130 -85 0
-131 -86 0
-132 -87 0
-139 -85 0
-140 -86 0
-141 -87 0
-127 -88 0
-128 -89 0
-129 -90 0
-133 -88 0
-134 -89 0
-135 -90 0
-121 -91 0
-122 -92 0
-123 -93 0
-127 -91 0
-128 -92 0
-129 -93 0
-127 -97 0
-128 -98 0
-129 -99 0
-145 -97 0
-146 -98 0
-147 -99 0
-106 -100 0
-107 -101 0
-108 -102 0
-136 -100 0
-137 -101 0
-138 -102 0
